import Controller.dzn;
import ILED.dzn;
import Timer.dzn;
import ISiren.dzn;
import IPWManager.dzn;
import ISensor.dzn;

component AlarmSystem {
	provides IController iController;
	requires AsyncITimer iTimer;

	system {
		Controller controller;
		LED led;
		Siren siren;
		PWManager pwManager;
		Sensor sensor;
		RobustTimer rbTimer;

		iController <=> controller.iController;
		controller.iLed <=> led.iLed;
		controller.iTimer <=> rbTimer.iTimer;
		controller.iSiren <=> siren.iSiren;
		controller.iPWManager <=> pwManager.iPWManager;
		controller.iSensor <=> sensor.iSensor;
		rbTimer.ext_iTimer <=> iTimer;
	}
}
